2096720
26,44,64,12,53,0,31,55,11,46,47,1,15,13,56,32,51,21,30,27,49,17,9,43,61,38,50,34,52,36,67,18,48,22,59,5,24,29,40,63,66,6,42,45,25,65,10,54,33,37,20,3,19,23,60,41,39,4,28,2,62,58,35,7,14,57,8,16